
Gurobi 8.1.0 (win64, Python) logging started 04/13/19 11:59:18

Academic license - for non-commercial use only

Gurobi 8.1.0 (win64, Python) logging started 04/13/19 14:03:53

Academic license - for non-commercial use only

Gurobi 8.1.0 (win64, Python) logging started 04/13/19 14:13:13

Academic license - for non-commercial use only

Gurobi 8.1.0 (win64, Python) logging started 04/13/19 14:17:02

Academic license - for non-commercial use only

Gurobi 8.1.0 (win64, Python) logging started 04/13/19 14:19:30

Academic license - for non-commercial use only

Gurobi 8.1.0 (win64, Python) logging started 04/13/19 14:23:07

Academic license - for non-commercial use only

Gurobi 8.1.0 (win64, Python) logging started 04/13/19 14:24:47

Academic license - for non-commercial use only

Gurobi 8.1.0 (win64, Python) logging started 04/13/19 14:29:42

Academic license - for non-commercial use only

Gurobi 8.1.0 (win64, Python) logging started 04/13/19 14:38:38

Academic license - for non-commercial use only

Gurobi 8.1.0 (win64, Python) logging started 04/13/19 14:48:03

Academic license - for non-commercial use only

Gurobi 8.1.0 (win64, Python) logging started 04/13/19 15:20:09

Academic license - for non-commercial use only

Gurobi 8.1.0 (win64, Python) logging started 04/13/19 15:23:30

Academic license - for non-commercial use only

Gurobi 8.1.0 (win64, Python) logging started 04/13/19 15:25:19

Academic license - for non-commercial use only

Gurobi 8.1.0 (win64, Python) logging started 04/13/19 15:35:50

Academic license - for non-commercial use only

Gurobi 8.1.0 (win64, Python) logging started 04/13/19 15:45:52

Academic license - for non-commercial use only

Gurobi 8.1.0 (win64, Python) logging started 04/13/19 15:58:05

Academic license - for non-commercial use only

Gurobi 8.1.0 (win64, Python) logging started 04/19/19 10:00:27

Academic license - for non-commercial use only

Gurobi 8.1.0 (win64, Python) logging started 04/19/19 10:05:19

Academic license - for non-commercial use only

Gurobi 8.1.0 (win64, Python) logging started 04/19/19 10:15:06

Academic license - for non-commercial use only

Gurobi 8.1.0 (win64, Python) logging started 04/19/19 10:23:19

Academic license - for non-commercial use only

Gurobi 8.1.0 (win64, Python) logging started 04/19/19 10:30:07

Academic license - for non-commercial use only

Gurobi 8.1.0 (win64, Python) logging started 04/19/19 13:26:58

Academic license - for non-commercial use only

Gurobi 8.1.0 (win64, Python) logging started 04/19/19 13:28:57

Academic license - for non-commercial use only

Gurobi 8.1.0 (win64, Python) logging started 04/19/19 13:49:38

Academic license - for non-commercial use only

Gurobi 8.1.0 (win64, Python) logging started 04/19/19 14:15:56

Academic license - for non-commercial use only

Gurobi 8.1.0 (win64, Python) logging started 04/19/19 15:06:59

Academic license - for non-commercial use only

Gurobi 8.1.0 (win64, Python) logging started 04/19/19 15:24:00

Academic license - for non-commercial use only

Gurobi 8.1.0 (win64, Python) logging started 04/19/19 16:57:47

Academic license - for non-commercial use only

Gurobi 8.1.0 (win64, Python) logging started 04/19/19 17:11:44

Academic license - for non-commercial use only

Gurobi 8.1.0 (win64, Python) logging started 04/19/19 17:19:40

Academic license - for non-commercial use only

Gurobi 8.1.0 (win64, Python) logging started 04/19/19 17:30:43

Academic license - for non-commercial use only

Gurobi 8.1.0 (win64, Python) logging started 04/19/19 17:57:13

Academic license - for non-commercial use only

Gurobi 8.1.0 (win64, Python) logging started 04/19/19 21:53:05

Academic license - for non-commercial use only

Gurobi 8.1.0 (win64, Python) logging started 04/19/19 21:54:08

Academic license - for non-commercial use only

Gurobi 8.1.0 (win64, Python) logging started 04/19/19 22:00:30

Academic license - for non-commercial use only

Gurobi 8.1.0 (win64, Python) logging started 04/19/19 22:08:01

Academic license - for non-commercial use only
